40
    87    43    33    53     1    76    44    34    60    36    82    88    21    63    54    18    68    53    46    33    12    52    21    45    95    60    21    69    85    32    66    21    78    75    55    23    99    47    64    98
     5     7    10     7     6     6     1     3     9     6     4     2     6    10     6     5     9     7     9     5     6     2     8     8     6     4    10     6     4     2     8     8     6     8     6     8     3     9     3     6
  1267  1914  1785  1385  1653  1344  1888  2075  1804  1297  1990  1709  1561  1719  1947  2024  2095  2021  1591  1836  1616  1683  1703  1655  1612  1285  2041  1964  1720  1424  1465  1940  1747  2059  1868  1946  1597  1424  1564  1404
